n = 100;
d = [62, 24, 25, 84, 47, 38, 82, 93, 24, 66, 47, 97, 92, 22, 93, 29, 56, 80, 78, 67, 45, 46, 22, 26, 38, 69, 40, 33, 75, 96, 85, 76, 68, 88, 36, 75, 56, 35, 77, 85, 60, 20, 25, 63, 81, 52, 30, 98, 54, 86, 87, 73, 51, 95, 65, 86, 22, 58, 80, 65, 81, 53, 57, 71, 81, 43, 26, 54, 58, 69, 20, 86, 21, 79, 62, 34, 27, 81, 30, 46, 68, 66, 98, 86, 66, 56, 82, 95, 47, 78, 30, 50, 34, 58, 77, 34, 84, 40, 46, 44];
m = 90;
pre = [1, 2, 3, 4, 5, 6, 7, 8, 9, 11, 12, 13, 14, 15, 16, 17, 18, 19, 21, 22, 23, 24, 25, 26, 27, 28, 29, 31, 32, 33, 34, 35, 36, 37, 38, 39, 41, 42, 43, 44, 45, 46, 47, 48, 49, 51, 52, 53, 54, 55, 56, 57, 58, 59, 61, 62, 63, 64, 65, 66, 67, 68, 69, 71, 72, 73, 74, 75, 76, 77, 78, 79, 81, 82, 83, 84, 85, 86, 87, 88, 89, 91, 92, 93, 94, 95, 96, 97, 98, 99];
post = [2, 3, 4, 5, 6, 7, 8, 9, 10, 12, 13, 14, 15, 16, 17, 18, 19, 20, 22, 23, 24, 25, 26, 27, 28, 29, 30, 32, 33, 34, 35, 36, 37, 38, 39, 40, 42, 43, 44, 45, 46, 47, 48, 49, 50, 52, 53, 54, 55, 56, 57, 58, 59, 60, 62, 63, 64, 65, 66, 67, 68, 69, 70, 72, 73, 74, 75, 76, 77, 78, 79, 80, 82, 83, 84, 85, 86, 87, 88, 89, 90, 92, 93, 94, 95, 96, 97, 98, 99, 100];
o = 10;
disj = [{8,19,26,39,46,59,66,77,86,91}, {10,15,21,38,47,56,70,78,88,95}, {7,12,24,37,50,54,62,76,90,94}, {4,18,28,35,44,51,69,80,87,92}, {5,16,27,31,45,55,67,71,89,98}, {3,11,30,33,48,53,61,73,83,96}, {6,20,23,36,49,57,64,72,82,100}, {1,17,22,40,43,60,63,79,85,93}, {2,13,29,32,41,58,68,74,84,97}, {9,14,25,34,42,52,65,75,81,99}];